50
22661

35 567
596 408
370 77
767 623
462 718
816 355
713 376
976 572
477 675
543 267
951 9
187 31
767 995
325 9
681 175
65 906
382 68
856 449
963 287
54 318
89 364
317 900
106 800
451 447
869 72
290 872
558 660
188 391
651 925
965 339
227 541
525 821
936 206
609 642
995 25
751 777
837 833
149 476
527 191
468 806
208 904
746 195
837 660
35 759
920 870
948 645
662 981
577 249
830 539
441 689
